
Gurobi 9.0.2 (mac64, Python) logging started Thu Jul 16 13:30:10 2020

Using license file /Users/lucawrabetz/gurobi.lic
Set parameter LogFile to value gurobi.log
Academic license - for non-commercial use only
